c description: Random 3-CNF over 15 variables and 41 clauses
c generator: CNFgen (0.9.0)
c copyright: (C) 2012-2020 Massimo Lauria <massimo.lauria@uniroma1.it>
c url: https://massimolauria.net/cnfgen
c command line: cnfgen -o 3SAT_n_15_m_41 randkcnf 3 15 41
c
p cnf 15 41
3 -10 15 0
-2 -4 -8 0
-3 -5 -8 0
-7 -12 13 0
-4 -9 -10 0
-3 6 -8 0
11 14 -15 0
5 11 -14 0
-4 -6 11 0
1 8 -10 0
10 11 12 0
1 3 15 0
4 7 -9 0
-3 -11 13 0
-1 7 -8 0
2 -10 15 0
1 2 13 0
3 -10 11 0
1 12 13 0
8 10 13 0
-1 -3 13 0
1 3 8 0
5 7 -12 0
-4 -6 -11 0
1 -2 -11 0
-6 7 10 0
2 3 6 0
5 -6 -15 0
2 6 -15 0
2 5 6 0
-1 2 9 0
1 -11 15 0
2 -7 10 0
-4 7 -13 0
-7 -8 13 0
-8 9 -11 0
4 7 11 0
-2 7 -13 0
1 5 -11 0
-6 -7 8 0
-5 10 -13 0